
Gurobi 9.0.0 (mac64, Python) logging started Tue Jan 28 15:25:08 2020

Using license file /Users/adambowker/gurobi.lic
Set parameter LogFile to value gurobi.log
Academic license - for non-commercial use only
